Route #1: 17 40 44 32 50 25 55 18 24 49 3 51
Route #2: 12 72 39 9 31 10 66 65 38 58
Route #3: 26 53 11 59 14 19 35 7 67
Route #4: 46 8 54 13 57 15 5 37 20 70 60 71 69 36 47
Route #5: 21 61 22 64 42 43 41 56 23 63 16 33
Route #6: 6 68 2 73 1 62 28 74 30 48 29 45
Route #7: 34 52 27 4 75
Cost 737